(declare-const c_0 Real)
(declare-const c_1 Real)
(declare-const c_2 Real)
(declare-const c_3 Real)
(declare-const c_4 Real)
(declare-const c_5 Real)
(declare-const c_6 Real)
(declare-const c_7 Real)
(declare-const c_8 Real)
(declare-const c_9 Real)
(declare-const c_10 Real)
(declare-const c_11 Real)
(declare-const c_12 Real)
(declare-const c_13 Real)
(declare-const c_14 Real)
(declare-const c_15 Real)
(declare-const c_16 Real)
(declare-const c_17 Real)
(declare-const c_18 Real)
(declare-const c_19 Real)
(declare-const c_20 Real)
(declare-const c_21 Real)
(declare-const c_22 Real)
(declare-const c_23 Real)
(declare-const c_24 Real)
(declare-const c_25 Real)
(declare-const c_26 Real)
(declare-const c_27 Real)
(declare-const c_28 Real)
(declare-const c_29 Real)
(declare-const s_0 Real)
(declare-const s_1 Real)
(declare-const s_2 Real)
(declare-const s_3 Real)
(declare-const s_4 Real)
(declare-const s_5 Real)
(declare-const s_6 Real)
(declare-const s_7 Real)
(declare-const s_8 Real)
(declare-const s_9 Real)
(declare-const s_10 Real)
(declare-const s_11 Real)
(declare-const s_12 Real)
(declare-const s_13 Real)
(declare-const s_14 Real)
(declare-const s_15 Real)
(declare-const s_16 Real)
(declare-const s_17 Real)
(declare-const s_18 Real)
(declare-const s_19 Real)
(declare-const s_20 Real)
(declare-const s_21 Real)
(declare-const s_22 Real)
(declare-const s_23 Real)
(declare-const s_24 Real)
(declare-const s_25 Real)
(declare-const s_26 Real)
(declare-const s_27 Real)
(declare-const s_28 Real)
(declare-const s_29 Real)
(assert (forall ((a Real) (max Real) (x Real) ) (=> (and (>= (+ (* 1024 1) (* 1 a ) ) 0) (>= (+ (* 1023 1) (* (- 1) a ) ) 0) (>= (+ (* 1024 1) (* 1 max ) ) 0) (>= (+ (* 1023 1) (* (- 1) max ) ) 0) (>= (+ (* 1024 1) (* 1 x ) ) 0) (>= (+ (* 1023 1) (* (- 1) x ) ) 0) ) (>= (+ (* 1 a max s_2 ) (* 1 a s_1 ) (* 1 a s_3 x ) (* 1 a a s_4 ) (* 1 max s_5 ) (* 1 max s_6 x ) (* 1 max max s_7 ) (* 1 s_0 ) (* 1 s_8 x ) (* 1 s_9 x x ) ) 0) )))
(assert (forall ((a Real) (max Real) (x Real) ) (=> (and (>= (+ (* 1024 1) (* 1 a ) ) 0) (>= (+ (* 1023 1) (* (- 1) a ) ) 0) (>= (+ (* 1024 1) (* 1 max ) ) 0) (>= (+ (* 1023 1) (* (- 1) max ) ) 0) (>= (+ (* 1024 1) (* 1 x ) ) 0) (>= (+ (* 1023 1) (* (- 1) x ) ) 0) ) (>= (+ (* 1 a c_1 ) (* 1 a c_2 max ) (* 1 a c_3 x ) (* 1 a a c_4 ) (* 1 c_0 ) (* 1 c_5 max ) (* 1 c_6 max x ) (* 1 c_7 max max ) (* 1 c_8 x ) (* 1 c_9 x x ) ) 0) )))
(assert (forall ((a Real) (max Real) (x Real) ) (=> (and (>= (+ (* (- 1) 1) (* 1 max ) ) 0) (>= (+ (* 1024 1) (* 1 a ) ) 0) (>= (+ (* 1024 1) (* 1 max ) ) 0) (>= (+ (* 1024 1) (* 1 x ) ) 0) (>= (+ (* 1023 1) (* (- 1) x ) ) 0) (>= (+ (* 1023 1) (* (- 1) max ) ) 0) (>= (+ (* 1023 1) (* (- 1) a ) ) 0) (>= (+ (* 1 a max s_2 ) (* 1 a s_1 ) (* 1 a s_3 x ) (* 1 a a s_4 ) (* 1 max s_5 ) (* 1 max s_6 x ) (* 1 max max s_7 ) (* 1 s_0 ) (* 1 s_8 x ) (* 1 s_9 x x ) ) 0) ) (>= (+ (* 1 max s_15 ) (* 1 max s_16 ) (* 1 max max s_17 ) (* 1 s_10 ) (* 1 s_18 ) (* 1 s_19 ) ) 0) )))
(assert (forall ((a Real) (max Real) (x Real) ) (=> (and (>= (+ (* (- 1) 1) (* 1 max ) ) 0) (>= (+ (* 1024 1) (* 1 a ) ) 0) (>= (+ (* 1024 1) (* 1 max ) ) 0) (>= (+ (* 1024 1) (* 1 x ) ) 0) (>= (+ (* 1023 1) (* (- 1) x ) ) 0) (>= (+ (* 1023 1) (* (- 1) max ) ) 0) (>= (+ (* 1023 1) (* (- 1) a ) ) 0) (>= (+ (* 1 a max s_2 ) (* 1 a s_1 ) (* 1 a s_3 x ) (* 1 a a s_4 ) (* 1 max s_5 ) (* 1 max s_6 x ) (* 1 max max s_7 ) (* 1 s_0 ) (* 1 s_8 x ) (* 1 s_9 x x ) ) 0) ) (>= (+ (* 1 c_10 ) (* 1 c_15 max ) (* 1 c_16 max ) (* 1 c_17 max max ) (* 1 c_18 ) (* 1 c_19 ) ) 0) )))
(assert (forall ((a Real) (max Real) (x Real) ) (=> (and (>= (+ (* (- 1) 1) (* 1 max ) ) 0) (>= (+ (* 1024 1) (* 1 a ) ) 0) (>= (+ (* 1024 1) (* 1 max ) ) 0) (>= (+ (* 1024 1) (* 1 x ) ) 0) (>= (+ (* 1023 1) (* (- 1) x ) ) 0) (>= (+ (* 1023 1) (* (- 1) max ) ) 0) (>= (+ (* 1023 1) (* (- 1) a ) ) 0) (>= (+ (* 1 a max s_2 ) (* 1 a s_1 ) (* 1 a s_3 x ) (* 1 a a s_4 ) (* 1 max s_5 ) (* 1 max s_6 x ) (* 1 max max s_7 ) (* 1 s_0 ) (* 1 s_8 x ) (* 1 s_9 x x ) ) 0) ) (>= (+ (* (- 1) 1) (* 1 a c_1 ) (* 1 a c_2 max ) (* 1 a c_3 x ) (* 1 a a c_4 ) (* 1 c_0 ) (* (- 1) c_10 ) (* (- 1) c_15 max ) (* (- 1) c_16 max ) (* (- 1) c_17 max max ) (* (- 1) c_18 ) (* (- 1) c_19 ) (* 1 c_5 max ) (* 1 c_6 max x ) (* 1 c_7 max max ) (* 1 c_8 x ) (* 1 c_9 x x ) ) 0) )))
(assert (forall ((a Real) (max Real) (x Real) ) (=> (and (>= (* (- 1) max ) 0) (>= (+ (* 1024 1) (* 1 a ) ) 0) (>= (+ (* 1024 1) (* 1 max ) ) 0) (>= (+ (* 1024 1) (* 1 x ) ) 0) (>= (+ (* 1023 1) (* (- 1) x ) ) 0) (>= (+ (* 1023 1) (* (- 1) max ) ) 0) (>= (+ (* 1023 1) (* (- 1) a ) ) 0) (>= (+ (* 1 a max s_2 ) (* 1 a s_1 ) (* 1 a s_3 x ) (* 1 a a s_4 ) (* 1 max s_5 ) (* 1 max s_6 x ) (* 1 max max s_7 ) (* 1 s_0 ) (* 1 s_8 x ) (* 1 s_9 x x ) ) 0) ) (>= (+ (* 1 a max s_22 ) (* 1 a s_21 ) (* 1 a s_23 x ) (* 1 a a s_24 ) (* 1 max s_25 ) (* 1 max s_26 x ) (* 1 max max s_27 ) (* 1 s_20 ) (* 1 s_28 x ) (* 1 s_29 x x ) ) 0) )))
(assert (forall ((a Real) (max Real) (x Real) ) (=> (and (>= (* (- 1) max ) 0) (>= (+ (* 1024 1) (* 1 a ) ) 0) (>= (+ (* 1024 1) (* 1 max ) ) 0) (>= (+ (* 1024 1) (* 1 x ) ) 0) (>= (+ (* 1023 1) (* (- 1) x ) ) 0) (>= (+ (* 1023 1) (* (- 1) max ) ) 0) (>= (+ (* 1023 1) (* (- 1) a ) ) 0) (>= (+ (* 1 a max s_2 ) (* 1 a s_1 ) (* 1 a s_3 x ) (* 1 a a s_4 ) (* 1 max s_5 ) (* 1 max s_6 x ) (* 1 max max s_7 ) (* 1 s_0 ) (* 1 s_8 x ) (* 1 s_9 x x ) ) 0) ) (>= (+ (* 1 a c_21 ) (* 1 a c_22 max ) (* 1 a c_23 x ) (* 1 a a c_24 ) (* 1 c_20 ) (* 1 c_25 max ) (* 1 c_26 max x ) (* 1 c_27 max max ) (* 1 c_28 x ) (* 1 c_29 x x ) ) 0) )))
(assert (forall ((a Real) (max Real) (x Real) ) (=> (and (>= (+ (* 1 max ) (* (- 1) x ) ) 0) (>= (+ (* (- 1) 1) (* (- 1) a ) (* 1 x ) ) 0) (>= (+ (* 1023 1) (* (- 1) max ) ) 0) (>= (+ (* (- 1) 1) (* 1 max ) ) 0) (>= (+ (* (- 1) 1) (* 1 a ) (* 1 x ) ) 0) (>= (+ (* 1 a max s_12 ) (* 1 a s_11 ) (* 1 a s_13 x ) (* 1 a a s_14 ) (* 1 max s_15 ) (* 1 max s_16 x ) (* 1 max max s_17 ) (* 1 s_10 ) (* 1 s_18 x ) (* 1 s_19 x x ) ) 0) ) (>= (+ (* 1 a max s_12 ) (* 1 a s_11 ) (* 1 a s_13 ) (* 1 a s_13 x ) (* 2 a s_14 ) (* 1 a a s_14 ) (* 1 max s_12 ) (* 1 max s_15 ) (* 1 max s_16 ) (* 1 max s_16 x ) (* 1 max max s_17 ) (* 1 s_10 ) (* 1 s_11 ) (* 1 s_13 ) (* 1 s_13 x ) (* 1 s_14 ) (* 1 s_18 ) (* 1 s_18 x ) (* 1 s_19 ) (* 2 s_19 x ) (* 1 s_19 x x ) ) 0) )))
(assert (forall ((a Real) (max Real) (x Real) ) (=> (and (>= (+ (* 1 max ) (* (- 1) x ) ) 0) (>= (+ (* (- 1) 1) (* (- 1) a ) (* 1 x ) ) 0) (>= (+ (* 1023 1) (* (- 1) max ) ) 0) (>= (+ (* (- 1) 1) (* 1 max ) ) 0) (>= (+ (* (- 1) 1) (* 1 a ) (* 1 x ) ) 0) (>= (+ (* 1 a max s_12 ) (* 1 a s_11 ) (* 1 a s_13 x ) (* 1 a a s_14 ) (* 1 max s_15 ) (* 1 max s_16 x ) (* 1 max max s_17 ) (* 1 s_10 ) (* 1 s_18 x ) (* 1 s_19 x x ) ) 0) ) (>= (+ (* 1 a c_11 ) (* 1 a c_12 max ) (* 1 a c_13 ) (* 1 a c_13 x ) (* 2 a c_14 ) (* 1 a a c_14 ) (* 1 c_10 ) (* 1 c_11 ) (* 1 c_12 max ) (* 1 c_13 ) (* 1 c_13 x ) (* 1 c_14 ) (* 1 c_15 max ) (* 1 c_16 max ) (* 1 c_16 max x ) (* 1 c_17 max max ) (* 1 c_18 ) (* 1 c_18 x ) (* 1 c_19 ) (* 2 c_19 x ) (* 1 c_19 x x ) ) 0) )))
(assert (forall ((a Real) (max Real) (x Real) ) (=> (and (>= (+ (* 1 max ) (* (- 1) x ) ) 0) (>= (+ (* (- 1) 1) (* (- 1) a ) (* 1 x ) ) 0) (>= (+ (* 1023 1) (* (- 1) max ) ) 0) (>= (+ (* (- 1) 1) (* 1 max ) ) 0) (>= (+ (* (- 1) 1) (* 1 a ) (* 1 x ) ) 0) (>= (+ (* 1 a max s_12 ) (* 1 a s_11 ) (* 1 a s_13 x ) (* 1 a a s_14 ) (* 1 max s_15 ) (* 1 max s_16 x ) (* 1 max max s_17 ) (* 1 s_10 ) (* 1 s_18 x ) (* 1 s_19 x x ) ) 0) ) (>= (+ (* (- 1) 1) (* (- 1) a c_13 ) (* (- 2) a c_14 ) (* (- 1) c_11 ) (* (- 1) c_12 max ) (* (- 1) c_13 ) (* (- 1) c_13 x ) (* (- 1) c_14 ) (* (- 1) c_16 max ) (* (- 1) c_18 ) (* (- 1) c_19 ) (* (- 2) c_19 x ) ) 0) )))
(assert (forall ((a Real) (max Real) (x Real) ) (=> (and (>= (+ (* 1 max ) (* (- 1) x ) ) 0) (>= (+ (* (- 1) 1) (* (- 1) a ) (* 1 x ) ) 0) (>= (+ (* 1023 1) (* (- 1) max ) ) 0) (>= (+ (* (- 1) 1) (* 1 max ) ) 0) (>= (+ (* (- 1) 1) (* 1 a ) (* 1 x ) ) 0) (>= (+ (* 1 a max s_12 ) (* 1 a s_11 ) (* 1 a s_13 x ) (* 1 a a s_14 ) (* 1 max s_15 ) (* 1 max s_16 x ) (* 1 max max s_17 ) (* 1 s_10 ) (* 1 s_18 x ) (* 1 s_19 x x ) ) 0) ) (>= (+ (* 1 a max s_12 ) (* 1 a s_11 ) (* 1 a s_13 ) (* 1 a s_13 x ) (* (- 2) a s_14 ) (* 1 a a s_14 ) (* (- 1) max s_12 ) (* 1 max s_15 ) (* 1 max s_16 ) (* 1 max s_16 x ) (* 1 max max s_17 ) (* 1 s_10 ) (* (- 1) s_11 ) (* (- 1) s_13 ) (* (- 1) s_13 x ) (* 1 s_14 ) (* 1 s_18 ) (* 1 s_18 x ) (* 1 s_19 ) (* 2 s_19 x ) (* 1 s_19 x x ) ) 0) )))
(assert (forall ((a Real) (max Real) (x Real) ) (=> (and (>= (+ (* 1 max ) (* (- 1) x ) ) 0) (>= (+ (* (- 1) 1) (* (- 1) a ) (* 1 x ) ) 0) (>= (+ (* 1023 1) (* (- 1) max ) ) 0) (>= (+ (* (- 1) 1) (* 1 max ) ) 0) (>= (+ (* (- 1) 1) (* 1 a ) (* 1 x ) ) 0) (>= (+ (* 1 a max s_12 ) (* 1 a s_11 ) (* 1 a s_13 x ) (* 1 a a s_14 ) (* 1 max s_15 ) (* 1 max s_16 x ) (* 1 max max s_17 ) (* 1 s_10 ) (* 1 s_18 x ) (* 1 s_19 x x ) ) 0) ) (>= (+ (* 1 a c_11 ) (* 1 a c_12 max ) (* 1 a c_13 ) (* 1 a c_13 x ) (* (- 2) a c_14 ) (* 1 a a c_14 ) (* 1 c_10 ) (* (- 1) c_11 ) (* (- 1) c_12 max ) (* (- 1) c_13 ) (* (- 1) c_13 x ) (* 1 c_14 ) (* 1 c_15 max ) (* 1 c_16 max ) (* 1 c_16 max x ) (* 1 c_17 max max ) (* 1 c_18 ) (* 1 c_18 x ) (* 1 c_19 ) (* 2 c_19 x ) (* 1 c_19 x x ) ) 0) )))
(assert (forall ((a Real) (max Real) (x Real) ) (=> (and (>= (+ (* 1 max ) (* (- 1) x ) ) 0) (>= (+ (* (- 1) 1) (* (- 1) a ) (* 1 x ) ) 0) (>= (+ (* 1023 1) (* (- 1) max ) ) 0) (>= (+ (* (- 1) 1) (* 1 max ) ) 0) (>= (+ (* (- 1) 1) (* 1 a ) (* 1 x ) ) 0) (>= (+ (* 1 a max s_12 ) (* 1 a s_11 ) (* 1 a s_13 x ) (* 1 a a s_14 ) (* 1 max s_15 ) (* 1 max s_16 x ) (* 1 max max s_17 ) (* 1 s_10 ) (* 1 s_18 x ) (* 1 s_19 x x ) ) 0) ) (>= (+ (* (- 1) 1) (* (- 1) a c_13 ) (* 2 a c_14 ) (* 1 c_11 ) (* 1 c_12 max ) (* 1 c_13 ) (* 1 c_13 x ) (* (- 1) c_14 ) (* (- 1) c_16 max ) (* (- 1) c_18 ) (* (- 1) c_19 ) (* (- 2) c_19 x ) ) 0) )))
(assert (forall ((a Real) (max Real) (x Real) ) (=> (and (>= (+ (* (- 1) 1) (* (- 1) max ) (* 1 x ) ) 0) (>= (+ (* (- 1) 1) (* (- 1) a ) (* 1 x ) ) 0) (>= (+ (* 1023 1) (* (- 1) max ) ) 0) (>= (+ (* (- 1) 1) (* 1 max ) ) 0) (>= (+ (* (- 1) 1) (* 1 a ) (* 1 x ) ) 0) (>= (+ (* 1 a max s_12 ) (* 1 a s_11 ) (* 1 a s_13 x ) (* 1 a a s_14 ) (* 1 max s_15 ) (* 1 max s_16 x ) (* 1 max max s_17 ) (* 1 s_10 ) (* 1 s_18 x ) (* 1 s_19 x x ) ) 0) ) (>= (+ (* 1 a max s_22 ) (* 1 a s_21 ) (* 1 a s_23 x ) (* 1 a a s_24 ) (* 1 max s_25 ) (* 1 max s_26 x ) (* 1 max max s_27 ) (* 1 s_20 ) (* 1 s_28 x ) (* 1 s_29 x x ) ) 0) )))
(assert (forall ((a Real) (max Real) (x Real) ) (=> (and (>= (+ (* (- 1) 1) (* (- 1) max ) (* 1 x ) ) 0) (>= (+ (* (- 1) 1) (* (- 1) a ) (* 1 x ) ) 0) (>= (+ (* 1023 1) (* (- 1) max ) ) 0) (>= (+ (* (- 1) 1) (* 1 max ) ) 0) (>= (+ (* (- 1) 1) (* 1 a ) (* 1 x ) ) 0) (>= (+ (* 1 a max s_12 ) (* 1 a s_11 ) (* 1 a s_13 x ) (* 1 a a s_14 ) (* 1 max s_15 ) (* 1 max s_16 x ) (* 1 max max s_17 ) (* 1 s_10 ) (* 1 s_18 x ) (* 1 s_19 x x ) ) 0) ) (>= (+ (* 1 a c_21 ) (* 1 a c_22 max ) (* 1 a c_23 x ) (* 1 a a c_24 ) (* 1 c_20 ) (* 1 c_25 max ) (* 1 c_26 max x ) (* 1 c_27 max max ) (* 1 c_28 x ) (* 1 c_29 x x ) ) 0) )))

(check-sat)
(get-model)
